c colouring generated by benchmark framework
p edge 250 3218
v 1 9
v 2 8
v 3 5
v 4 4
v 5 3
v 6 3
v 7 10
v 8 9
v 9 4
v 10 11
v 11 8
v 12 0
v 13 9
v 14 2
v 15 4
v 16 6
v 17 4
v 18 0
v 19 0
v 20 0
v 21 8
v 22 10
v 23 9
v 24 5
v 25 10
v 26 7
v 27 11
v 28 2
v 29 11
v 30 11
v 31 2
v 32 11
v 33 8
v 34 4
v 35 0
v 36 10
v 37 11
v 38 10
v 39 8
v 40 8
v 41 9
v 42 3
v 43 5
v 44 7
v 45 2
v 46 6
v 47 9
v 48 3
v 49 1
v 50 1
v 51 1
v 52 6
v 53 0
v 54 10
v 55 2
v 56 5
v 57 3
v 58 0
v 59 9
v 60 10
v 61 3
v 62 11
v 63 4
v 64 11
v 65 2
v 66 8
v 67 8
v 68 7
v 69 9
v 70 4
v 71 0
v 72 2
v 73 1
v 74 8
v 75 8
v 76 5
v 77 4
v 78 4
v 79 7
v 80 8
v 81 7
v 82 8
v 83 0
v 84 3
v 85 7
v 86 11
v 87 2
v 88 5
v 89 11
v 90 7
v 91 1
v 92 8
v 93 2
v 94 2
v 95 10
v 96 3
v 97 5
v 98 9
v 99 4
v 100 0
v 101 0
v 102 11
v 103 1
v 104 6
v 105 6
v 106 8
v 107 0
v 108 0
v 109 6
v 110 2
v 111 1
v 112 6
v 113 0
v 114 9
v 115 3
v 116 9
v 117 11
v 118 10
v 119 6
v 120 6
v 121 7
v 122 3
v 123 1
v 124 6
v 125 3
v 126 11
v 127 6
v 128 7
v 129 11
v 130 9
v 131 4
v 132 5
v 133 7
v 134 4
v 135 6
v 136 7
v 137 6
v 138 6
v 139 10
v 140 4
v 141 8
v 142 7
v 143 3
v 144 7
v 145 6
v 146 9
v 147 9
v 148 3
v 149 5
v 150 10
v 151 1
v 152 10
v 153 3
v 154 1
v 155 8
v 156 7
v 157 11
v 158 10
v 159 9
v 160 1
v 161 1
v 162 2
v 163 2
v 164 4
v 165 7
v 166 6
v 167 2
v 168 5
v 169 2
v 170 4
v 171 9
v 172 10
v 173 7
v 174 10
v 175 10
v 176 10
v 177 2
v 178 9
v 179 7
v 180 11
v 181 2
v 182 11
v 183 4
v 184 3
v 185 9
v 186 11
v 187 3
v 188 7
v 189 1
v 190 8
v 191 2
v 192 3
v 193 9
v 194 6
v 195 6
v 196 11
v 197 1
v 198 3
v 199 2
v 200 4
v 201 11
v 202 0
v 203 8
v 204 11
v 205 3
v 206 9
v 207 9
v 208 5
v 209 1
v 210 1
v 211 0
v 212 0
v 213 4
v 214 1
v 215 5
v 216 9
v 217 9
v 218 2
v 219 5
v 220 11
v 221 6
v 222 1
v 223 7
v 224 8
v 225 5
v 226 5
v 227 3
v 228 5
v 229 4
v 230 2
v 231 5
v 232 5
v 233 0
v 234 2
v 235 6
v 236 0
v 237 11
v 238 5
v 239 5
v 240 2
v 241 7
v 242 5
v 243 3
v 244 6
v 245 5
v 246 9
v 247 4
v 248 10
v 249 9
v 250 4
